outputs/case_220.model.txt
operation_scope_disclosed = False
beneficiary_transfer_limit_disclosed = False
risk_disclosure_disclosed = False
trustor_informed = False
control_established = False
control_executed = False
procedure_anti_money_laundering = False
regular_training = False
dedicated_personnel_assigned = False
risk_assessment_report_updated = False
audit_procedure = False
other_designated_matters = False
periodic_inspection_done = False
violation_major = False
regulator_periodic_inspection = False
remuneration_violation = False
inspection_obstructed = False
violate_advertising_rules = False
violation_penalty = False
consumer_info_violation = False
inspection_obstruction_penalty = False
control_content_compliance = False
formal_condition_violation = False
violate_remuneration_rules = False
violate_disclosure_rules = False
fail_required_action = False
advertising_violation = False
major_violation_penalty = False
assist_formal_condition_violation = False
control_not_executed = False
contract_disclosure_compliance = False
penalty = False
internal_control_compliance = False
disclosure_violation = False
violate_mandatory_prohibition = False
control_not_established = False
control_content_not_compliant = False
violate_consumer_info_rules = False